12_S44_12CO_top
1.0
       10.8129215240         0.0000000000         0.0000000000
        5.4064613855         9.3642643690         0.0000000000
        0.0000000000         0.0000000000        26.4861412048
      Rh    C    O
   96   12   12
Direct
    -0.000000000        -0.000000000         0.002025802
    -0.000000010         0.500000006         0.002025802
     0.500000000        -0.000000000         0.002025802
     0.500000012         0.500000006         0.002025802
     0.500000006         0.250000003         0.002025802
     0.499999987         0.749999984         0.002025802
    -0.000000005         0.250000003         0.002025802
    -0.000000013         0.749999984         0.002025802
     0.250000000        -0.000000000         0.002025802
     0.249999968         0.500000006         0.002025802
     0.750000044        -0.000000000         0.002025802
     0.750000056         0.500000006         0.002025802
     0.250000006         0.250000003         0.002025802
     0.249999987         0.749999984         0.002025802
     0.750000006         0.250000003         0.002025802
     0.750000031         0.749999984         0.002025802
     0.083333330         0.083333330         0.083762366
     0.083333339         0.583333298         0.083762366
     0.583333308         0.083333330         0.083762366
     0.583333339         0.583333298         0.083762366
     0.083333320         0.333333321         0.083762366
     0.083333333         0.833333327         0.083762366
     0.583333365         0.333333321         0.083762366
     0.583333288         0.833333327         0.083762366
     0.333333308         0.083333330         0.083762366
     0.333333295         0.583333298         0.083762366
     0.833333352         0.083333330         0.083762366
     0.833333383         0.583333298         0.083762366
     0.333333320         0.333333321         0.083762366
     0.333333333         0.833333327         0.083762366
     0.833333320         0.333333321         0.083762366
     0.833333333         0.833333327         0.083762366
     0.166666660         0.166666660         0.166666661
     0.166666641         0.666666641         0.166666661
     0.666666616         0.166666660         0.166666661
     0.666666641         0.666666641         0.166666661
     0.166666666         0.416666663         0.166666661
     0.166666634         0.916666670         0.166666661
     0.666666578         0.416666663         0.166666661
     0.666666590         0.916666670         0.166666661
     0.416666660         0.166666660         0.166666661
     0.416666685         0.666666641         0.166666661
     0.916666660         0.166666660         0.166666661
     0.916666597         0.666666641         0.166666661
     0.416666666         0.416666663         0.166666661
     0.416666634         0.916666670         0.166666661
     0.916666622         0.416666663         0.166666661
     0.916666634         0.916666670         0.166666661
    -0.000000000        -0.000000000         0.250000000
    -0.000000010         0.500000006         0.250000000
     0.500000000        -0.000000000         0.250000000
     0.500000012         0.500000006         0.250000000
     0.500000006         0.250000003         0.250000000
     0.499999987         0.749999984         0.250000000
    -0.000000005         0.250000003         0.250000000
    -0.000000013         0.749999984         0.250000000
     0.250000000        -0.000000000         0.250000000
     0.249999968         0.500000006         0.250000000
     0.750000044        -0.000000000         0.250000000
     0.750000056         0.500000006         0.250000000
     0.250000006         0.250000003         0.250000000
     0.249999987         0.749999984         0.250000000
     0.750000006         0.250000003         0.250000000
     0.750000031         0.749999984         0.250000000
     0.083333330         0.083333330         0.333241937
     0.083333339         0.583333298         0.333241937
     0.583333308         0.083333330         0.333241937
     0.583333339         0.583333298         0.333241937
     0.083333320         0.333333321         0.333286225
     0.083333333         0.833333327         0.333286225
     0.583333365         0.333333321         0.333286225
     0.583333288         0.833333327         0.333286225
     0.333333308         0.083333330         0.333241937
     0.333333295         0.583333298         0.333241937
     0.833333352         0.083333330         0.333241937
     0.833333383         0.583333298         0.333241937
     0.333333320         0.333333321         0.333241937
     0.333333333         0.833333327         0.333241937
     0.833333320         0.333333321         0.333241937
     0.833333333         0.833333327         0.333241937
     0.166666660         0.166666660         0.420579437
     0.166666641         0.666666641         0.420579437
     0.666666616         0.166666660         0.420579437
     0.666666641         0.666666641         0.420579437
     0.166666666         0.416666663         0.420579437
     0.166666634         0.916666670         0.420579437
     0.666666578         0.416666663         0.420579437
     0.666666590         0.916666670         0.420579437
     0.416666660         0.166666660         0.413295494
     0.416666685         0.666666641         0.413295494
     0.916666660         0.166666660         0.413295494
     0.916666597         0.666666641         0.413295494
     0.416666666         0.416666663         0.420579437
     0.416666634         0.916666670         0.420579437
     0.916666622         0.416666663         0.420579437
     0.916666634         0.916666670         0.420579437
     0.416666666         0.416666663         0.489886915
     0.416666634         0.916666670         0.489886915
     0.916666622         0.416666663         0.489886915
     0.916666634         0.916666670         0.489886915
     0.166666660         0.166666660         0.489886915
     0.166666641         0.666666641         0.489886915
     0.666666616         0.166666660         0.489886915
     0.666666641         0.666666641         0.489886915
     0.166666666         0.416666663         0.489886915
     0.166666634         0.916666670         0.489886915
     0.666666578         0.416666663         0.489886915
     0.666666590         0.916666670         0.489886915
     0.416666666         0.416666663         0.533713932
     0.416666634         0.916666670         0.533713932
     0.916666622         0.416666663         0.533713932
     0.916666634         0.916666670         0.533713932
     0.166666660         0.166666660         0.533713932
     0.166666641         0.666666641         0.533713932
     0.666666616         0.166666660         0.533713932
     0.666666641         0.666666641         0.533713932
     0.166666666         0.416666663         0.533713932
     0.166666634         0.916666670         0.533713932
     0.666666578         0.416666663         0.533713932
     0.666666590         0.916666670         0.533713932
